10458.83,58.15,72.14
10049.19,60.52,75.08
9839.74,61.81,76.68
10398.57,58.49,72.56
11621.46,52.34,64.92
11289.51,53.87,66.83
10804.95,56.29,69.83
10036.88,60.6,75.17
11819.96,51.46,63.83
10191.34,59.68,74.03
10698.19,56.85,70.53
10581.08,57.48,71.31
11363.9,53.52,66.39
10514.13,57.85,71.76
10145.29,59.95,74.37
9724.7,62.54,77.58
12020.2,50.6,62.77
10759.73,56.53,70.12
8725.66,69.7,86.47
11078.37,54.9,68.11
